
Gurobi 6.5.2 (linux64) logging started Wed Mar 15 13:04:33 2017


Gurobi 6.5.2 (linux64) logging started Wed Mar 15 13:04:33 2017

Optimize a model with 401 rows, 14130 columns and 29535 nonzeros
Coefficient statistics:
  Matrix range    [1e+00, 2e+00]
  Objective range [1e+00, 1e+02]
  Bounds range    [1e+00, 1e+00]
  RHS range       [1e+00, 1e+00]
Presolve removed 92 rows and 2 columns
Presolve time: 0.07s
Presolved: 309 rows, 14128 columns, 28842 nonzeros
Variable types: 0 continuous, 14128 integer (14128 binary)

Root relaxation: objective 1.054583e+03, 241 iterations, 0.00 seconds

    Nodes    |    Current Node    |     Objective Bounds      |     Work
 Expl Unexpl |  Obj  Depth IntInf | Incumbent    BestBd   Gap | It/Node Time

     0     0 1054.58333    0   59          - 1054.58333      -     -    0s
     0     0 1092.53571    0   62          - 1092.53571      -     -    0s
     0     0 1092.55000    0   62          - 1092.55000      -     -    0s
     0     0 1099.50000    0   69          - 1099.50000      -     -    0s
     0     0 1099.50000    0   65          - 1099.50000      -     -    0s
     0     0 1102.10000    0   67          - 1102.10000      -     -    0s
     0     0 1102.60000    0   63          - 1102.60000      -     -    0s
     0     0 1104.12500    0   53          - 1104.12500      -     -    0s
     0     0 1104.12500    0   58          - 1104.12500      -     -    0s
     0     0 1104.29167    0   66          - 1104.29167      -     -    0s
     0     0 1104.29167    0   66          - 1104.29167      -     -    0s
     0     2 1104.29167    0   65          - 1104.29167      -     -    2s
  1617  1578 1226.50000  278    2          - 1107.32500      -   4.0    5s

Cutting planes:
  Gomory: 50
  Cover: 113
  MIR: 1
  Flow cover: 8
  Zero half: 8
  Lazy constraints: 15

Explored 2430 nodes (11041 simplex iterations) in 10.01 seconds
Thread count was 8 (of 8 available processors)

Time limit reached
Best objective -, best bound 1.115000000000e+03, gap -
